640054
155,112,133,229,162,72,1,36,94,35,87,108,50,151,28,78,130,55,62,102,169,27,40,81,215,75,205,34,37,192,179,196,89,107,161,116,184,101,166,9,68,96,91,144,26,22,117,20,183,210,7,63,32,118,49,71,140,135,83,157,74,67,39,207,43,147,127,163,16,189,60,137,145,211,156,5,64,44,220,176,223,17,47,225,13,48,111,19,134,194,97,120,8,30,15,138,3,185,208,178,31,199,159,23,69,226,177,51,98,122,152,191,114,10,201,110,14,165,227,125,46,214,164,154,65,200,198,29,174,197,143,11,76,57,95,79,167,84,193,195,119,86,70,126,160,42,113,73,209,218,206,136,181,124,188,85,123,25,131,173,148,61,182,80,132,52,221,59,139,58,213,93,168,172,204,2,115,149,158,77,222,41,128,141,24,66,216,100,53,92,18,56,54,175,105,202,99,190,219,106,121,180,82,230,45,212,104,6,203,38,224,33,129,153,217,21,4,142,170,150,171,186,90,109,228,88,146,12,187,103